NAME          
ROWS
 N  OBJ
 L  c1
 L  c2
 L  c3
 L  c4
 L  c5
COLUMNS
    MARKER    'MARKER'                 'INTORG'
    x[1]      c1        490
    x[1]      c2        556
    x[1]      c3        860
    x[1]      c4        434
    x[1]      c5        906
    x[1]      OBJ       -639
    x[2]      c1        92
    x[2]      c2        500
    x[2]      c3        908
    x[2]      c4        885
    x[2]      c5        154
    x[2]      OBJ       -679
    x[3]      c1        304
    x[3]      c2        814
    x[3]      c3        218
    x[3]      c4        501
    x[3]      c5        138
    x[3]      OBJ       -738
    x[4]      c1        747
    x[4]      c2        54
    x[4]      c3        385
    x[4]      c4        224
    x[4]      c5        33
    x[4]      OBJ       -524
    x[5]      c1        923
    x[5]      c2        775
    x[5]      c3        768
    x[5]      c4        568
    x[5]      c5        17
    x[5]      OBJ       -255
    x[6]      c1        940
    x[6]      c2        61
    x[6]      c3        505
    x[6]      c4        7
    x[6]      c5        562
    x[6]      OBJ       -489
    x[7]      c1        771
    x[7]      c2        117
    x[7]      c3        714
    x[7]      c4        160
    x[7]      c5        797
    x[7]      OBJ       -680
    x[8]      c1        650
    x[8]      c2        6
    x[8]      c3        470
    x[8]      c4        233
    x[8]      c5        698
    x[8]      OBJ       -812
    x[9]      c1        67
    x[9]      c2        988
    x[9]      c3        100
    x[9]      c4        783
    x[9]      c5        759
    x[9]      OBJ       -700
    x[10]     c1        661
    x[10]     c2        922
    x[10]     c3        506
    x[10]     c4        260
    x[10]     c5        451
    x[10]     OBJ       -233
    x[11]     c1        208
    x[11]     c2        132
    x[11]     c3        960
    x[11]     c4        780
    x[11]     c5        549
    x[11]     OBJ       -771
    x[12]     c1        650
    x[12]     c2        806
    x[12]     c3        670
    x[12]     c4        596
    x[12]     c5        564
    x[12]     OBJ       -954
    x[13]     c1        339
    x[13]     c2        893
    x[13]     c3        810
    x[13]     c4        456
    x[13]     c5        409
    x[13]     OBJ       -474
    x[14]     c1        866
    x[14]     c2        853
    x[14]     c3        297
    x[14]     c4        672
    x[14]     c5        253
    x[14]     OBJ       -794
    x[15]     c1        280
    x[15]     c2        686
    x[15]     c3        519
    x[15]     c4        399
    x[15]     c5        534
    x[15]     OBJ       -137
    x[16]     c1        753
    x[16]     c2        358
    x[16]     c3        49
    x[16]     c4        526
    x[16]     c5        895
    x[16]     OBJ       -612
    x[17]     c1        769
    x[17]     c2        857
    x[17]     c3        902
    x[17]     c4        481
    x[17]     c5        453
    x[17]     OBJ       -549
    x[18]     c1        79
    x[18]     c2        287
    x[18]     c3        861
    x[18]     c4        282
    x[18]     c5        300
    x[18]     OBJ       -986
    x[19]     c1        256
    x[19]     c2        825
    x[19]     c3        735
    x[19]     c4        863
    x[19]     c5        908
    x[19]     OBJ       -595
    x[20]     c1        502
    x[20]     c2        768
    x[20]     c3        720
    x[20]     c4        431
    x[20]     c5        495
    x[20]     OBJ       -979
RHS
    rhs       c1        5174
    rhs       c2        5629
    rhs       c3        5978
    rhs       c4        4770
    rhs       c5        4938
RANGES
BOUNDS
 BV bounds    x[1]
 BV bounds    x[2]
 BV bounds    x[3]
 BV bounds    x[4]
 BV bounds    x[5]
 BV bounds    x[6]
 BV bounds    x[7]
 BV bounds    x[8]
 BV bounds    x[9]
 BV bounds    x[10]
 BV bounds    x[11]
 BV bounds    x[12]
 BV bounds    x[13]
 BV bounds    x[14]
 BV bounds    x[15]
 BV bounds    x[16]
 BV bounds    x[17]
 BV bounds    x[18]
 BV bounds    x[19]
 BV bounds    x[20]
ENDATA
